(set-logic QF_FPBV)
(set-info :source |Random FP created by PyMPF|)
(set-info :category random)
(set-info :status unsat)
;; fp.from.ubv(BitVec 16)
(declare-const x (_ BitVec 16))
(assert (bvsge x #b0000011010101011))
;; x should be 1707
(declare-const r Float32)
(assert (= r ((_ to_fp 8 24) RNE x)))
(assert (not (fp.geq r (fp #b0 #b10001001 #b10101010110000000000000))))
(check-sat)
(exit)
